solution status: time limit reached
objective value:                                  468
yAntCul(D1,P4)                                      1 	(obj:0)
yAntCul(D3,P1)                                      1 	(obj:0)
yArcClaCS(D3,P1)                                    1 	(obj:0)
yArcClaCS(D4,P0)                                    1 	(obj:0)
yArcCla1(D1,P0)                                     1 	(obj:0)
yArcCla1(D2,P3)                                     1 	(obj:0)
yArcCla1(D4,P3)                                     1 	(obj:0)
yArcCla2(D4,P1)                                     1 	(obj:0)
yArcCla2(D4,P2)                                     1 	(obj:0)
yArcCriMed(D1,P1)                                   1 	(obj:0)
yArcCriMed(D3,P5)                                   1 	(obj:0)
yArcVicOriAnt(D1,P3)                                1 	(obj:0)
yArcVicOriAnt(D1,P4)                                1 	(obj:0)
yArcVicOriAnt(D2,P3)                                1 	(obj:0)
yArcStoArtMus(D3,P4)                                1 	(obj:0)
yArcStoArtMus(D3,P5)                                1 	(obj:0)
yArcMedCS(D1,P0)                                    1 	(obj:0)
yArcMedCS(D3,P0)                                    1 	(obj:0)
yArchiv(D1,P1)                                      1 	(obj:0)
yArchiv(D3,P1)                                      1 	(obj:0)
yArchiv(D3,P2)                                      1 	(obj:0)
yArchivCS(D2,P3)                                    1 	(obj:0)
yArchivCS(D4,P3)                                    1 	(obj:0)
yArchivCS(D4,P4)                                    1 	(obj:0)
yBioarcCS(D0,P5)                                    1 	(obj:0)
yBioarcCS(D2,P0)                                    1 	(obj:0)
yCartog(D0,P1)                                      1 	(obj:0)
yCartog(D2,P4)                                      1 	(obj:0)
yCartog(D3,P0)                                      1 	(obj:0)
yChiResCS(D2,P4)                                    1 	(obj:0)
yChiResCS(D2,P5)                                    1 	(obj:0)
yCodico(D0,P2)                                      1 	(obj:0)
yCodico(D0,P3)                                      1 	(obj:0)
yCodico(D1,P3)                                      1 	(obj:0)
yCodicoCS(D0,P4)                                    1 	(obj:0)
yCodicoCS(D0,P5)                                    1 	(obj:0)
yEcoAzi(D0,P3)                                      1 	(obj:0)
yEcoAzi(D1,P1)                                      1 	(obj:0)
yEcoAzi(D3,P5)                                      1 	(obj:0)
yEleInfSciCatBenCulM2(D5,P0)                        1 	(obj:0)
yEleInfSciCatBenCulM2(D5,P1)                        1 	(obj:0)
yEleInfSciCatBenCulM3(D2,P3)                        1 	(obj:0)
yEleInfSciCatBenCulM3(D3,P2)                        1 	(obj:0)
yEleInfSciCatBenCulM3(D3,P3)                        1 	(obj:0)
yEpiLat(D1,P3)                                      1 	(obj:0)
yEpiLat(D1,P4)                                      1 	(obj:0)
yEpiLat(D4,P4)                                      1 	(obj:0)
yEsteti(D1,P4)                                      1 	(obj:0)
yEsteti(D2,P3)                                      1 	(obj:0)
yEsteti(D3,P2)                                      1 	(obj:0)
yEtrAntIta(D0,P2)                                   1 	(obj:0)
yEtrAntIta(D0,P3)                                   1 	(obj:0)
yEtrAntIta(D3,P2)                                   1 	(obj:0)
yFilCla2(D1,P2)                                     1 	(obj:0)
yFilCla2(D2,P4)                                     1 	(obj:0)
yFilCla2(D2,P5)                                     1 	(obj:0)
yFilTeo(D1,P2)                                      1 	(obj:0)
yFilTeo(D2,P4)                                      1 	(obj:0)
yFilTeo(D3,P1)                                      1 	(obj:0)
yFonSoc(D1,P5)                                      1 	(obj:0)
yFonSoc(D3,P2)                                      1 	(obj:0)
yFonSoc(D4,P3)                                      1 	(obj:0)
yGeoTur(D0,P2)                                      1 	(obj:0)
yGeoTur(D1,P0)                                      1 	(obj:0)
yGeoTur(D2,P5)                                      1 	(obj:0)
yGeo1(D0,P1)                                        1 	(obj:0)
yGeo1(D2,P1)                                        1 	(obj:0)
yGeo1(D4,P4)                                        1 	(obj:0)
yGlotto(D1,P2)                                      1 	(obj:0)
yGlotto(D5,P0)                                      1 	(obj:0)
yGlotto(D5,P1)                                      1 	(obj:0)
yInfDoc(D1,P2)                                      1 	(obj:0)
yInfDoc(D2,P3)                                      1 	(obj:0)
yInfDoc(D2,P4)                                      1 	(obj:0)
yItaScr(D3,P4)                                      1 	(obj:0)
yItaScr(D4,P4)                                      1 	(obj:0)
yLabScr(D1,P5)                                      1 	(obj:0)
yLegBenCul2(D3,P3)                                  1 	(obj:0)
yLegBenCul2(D3,P4)                                  1 	(obj:0)
yLetCriAnt(D0,P1)                                   1 	(obj:0)
yLetCriAnt(D4,P1)                                   1 	(obj:0)
yLetCriAnt(D4,P2)                                   1 	(obj:0)
yLinLetGre1(D0,P1)                                  1 	(obj:0)
yLinLetGre1(D4,P1)                                  1 	(obj:0)
yLinLetGre1(D4,P2)                                  1 	(obj:0)
yLinLetLatCS(D0,P4)                                 1 	(obj:0)
yLinLetLatCS(D2,P1)                                 1 	(obj:0)
yLinLetLat2(D1,P0)                                  1 	(obj:0)
yLinLetLat2(D1,P1)                                  1 	(obj:0)
yLinLetLat2(D2,P2)                                  1 	(obj:0)
yLinGreA(D0,P3)                                     1 	(obj:0)
yLinGreA(D2,P2)                                     1 	(obj:0)
yLinLatA(D0,P2)                                     1 	(obj:0)
yLinLatA(D1,P1)                                     1 	(obj:0)
yLinLatB(D0,P2)                                     1 	(obj:0)
yLinLatB(D3,P0)                                     1 	(obj:0)
yLinLatB(D4,P5)                                     1 	(obj:0)
yLinGen(D1,P2)                                      1 	(obj:0)
yLinGen(D2,P0)                                      1 	(obj:0)
yLinGen(D4,P5)                                      1 	(obj:0)
yLinIta(D2,P2)                                      1 	(obj:0)
yLinIta(D2,P3)                                      1 	(obj:0)
yLinIta(D3,P3)                                      1 	(obj:0)
yLogFilMat(D1,P3)                                   1 	(obj:0)
yLogFilMat(D3,P0)                                   1 	(obj:0)
yMatTecAppArcM3(D1,P1)                              1 	(obj:0)
yMatTecAppArcM3(D3,P3)                              1 	(obj:0)
yMatCarCosResEdiSto(D1,P3)                          1 	(obj:0)
yMatCarCosResEdiSto(D2,P1)                          1 	(obj:0)
yMatCarCosResEdiSto(D2,P2)                          1 	(obj:0)
yMetRicStoArt(D0,P1)                                1 	(obj:0)
yMetRicStoArt(D0,P2)                                1 	(obj:0)
yNumismCS(D0,P4)                                    1 	(obj:0)
yNumismCS(D3,P4)                                    1 	(obj:0)
yOrientCS(D2,P4)                                    1 	(obj:0)
yOrientCS(D3,P3)                                    1 	(obj:0)
yPaleoa(D0,P3)                                      1 	(obj:0)
yPaleoa(D1,P5)                                      1 	(obj:0)
yPaleoa(D2,P2)                                      1 	(obj:0)
yPalLat(D0,P2)                                      1 	(obj:0)
yPalLat(D0,P3)                                      1 	(obj:0)
yPalLat(D4,P3)                                      1 	(obj:0)
yPapiroCS(D1,P3)                                    1 	(obj:0)
yPapiroCS(D1,P4)                                    1 	(obj:0)
yProMedCS(D1,P1)                                    1 	(obj:0)
yProMedCS(D2,P1)                                    1 	(obj:0)
yProMedCS(D4,P1)                                    1 	(obj:0)
yPsiTur(D1,P1)                                      1 	(obj:0)
yPsiTur(D2,P5)                                      1 	(obj:0)
yPsiTur(D4,P3)                                      1 	(obj:0)
ySocArt(D0,P2)                                      1 	(obj:0)
ySocArt(D1,P2)                                      1 	(obj:0)
ySocArt(D3,P4)                                      1 	(obj:0)
ySociol1(D1,P3)                                     1 	(obj:0)
ySociol1(D4,P1)                                     1 	(obj:0)
ySociol1(D4,P2)                                     1 	(obj:0)
yStoConCS(D2,P2)                                    1 	(obj:0)
yStoConCS(D4,P0)                                    1 	(obj:0)
yStoAntStaItaCS(D0,P4)                              1 	(obj:0)
yStoAntStaItaCS(D0,P5)                              1 	(obj:0)
yStoColIstMus(D1,P2)                                1 	(obj:0)
yStoColIstMus(D2,P4)                                1 	(obj:0)
yStoDisGra(D1,P0)                                   1 	(obj:0)
yStoDisGra(D1,P1)                                   1 	(obj:0)
yStoFriCS(D2,P0)                                    1 	(obj:0)
yStoFriCS(D3,P0)                                    1 	(obj:0)
yStoLibSta(D1,P4)                                   1 	(obj:0)
yStoLibSta(D1,P5)                                   1 	(obj:0)
yStoLibSta(D2,P1)                                   1 	(obj:0)
yStoLibStaCSM1(D0,P2)                               1 	(obj:0)
yStoLibStaCSM1(D2,P1)                               1 	(obj:0)
yStoLibStaCSM2(D0,P1)                               1 	(obj:0)
yStoLibStaCSM2(D2,P2)                               1 	(obj:0)
yStoRes(D1,P4)                                      1 	(obj:0)
yStoRes(D4,P4)                                      1 	(obj:0)
yStoRes(D4,P5)                                      1 	(obj:0)
yStoArc(D2,P0)                                      1 	(obj:0)
yStoArc(D3,P2)                                      1 	(obj:0)
yStoArc(D4,P4)                                      1 	(obj:0)
yStoArcCon(D0,P3)                                   1 	(obj:0)
yStoArcCon(D3,P3)                                   1 	(obj:0)
yStoArcMed(D5,P0)                                   1 	(obj:0)
yStoArcMed(D5,P1)                                   1 	(obj:0)
yStoArt(D1,P0)                                      1 	(obj:0)
yStoArt(D3,P0)                                      1 	(obj:0)
yStoArt(D5,P0)                                      1 	(obj:0)
yStoCriArt(D1,P3)                                   1 	(obj:0)
yStoCriArt(D1,P5)                                   1 	(obj:0)
yStoFilCS(D1,P2)                                    1 	(obj:0)
yStoFilCS(D1,P3)                                    1 	(obj:0)
yStoFilMedCS(D2,P3)                                 1 	(obj:0)
yStoFilMedCS(D2,P4)                                 1 	(obj:0)
yStoLinItaCS(D4,P1)                                 1 	(obj:0)
yStoLinItaCS(D4,P2)                                 1 	(obj:0)
yStoMus(D1,P0)                                      1 	(obj:0)
yStoMus(D1,P1)                                      1 	(obj:0)
yStoProArtCulMatMed(D2,P3)                          1 	(obj:0)
yStoProArtCulMatMed(D3,P2)                          1 	(obj:0)
yStoArtCon2CS(D2,P5)                                1 	(obj:0)
yStoArtCon2CS(D3,P2)                                1 	(obj:0)
yStoArtMod2CS(D2,P4)                                1 	(obj:0)
yStoArtMod2CS(D3,P0)                                1 	(obj:0)
yStoBib(D0,P4)                                      1 	(obj:0)
yStoBib(D0,P5)                                      1 	(obj:0)
yStoBib(D2,P2)                                      1 	(obj:0)
yStoTecArtM12(D0,P0)                                1 	(obj:0)
yStoTecArtM12(D2,P2)                                1 	(obj:0)
yStoTecArtM12(D3,P1)                                1 	(obj:0)
yStoTecArtM3(D0,P0)                                 1 	(obj:0)
yStoTecArtM3(D1,P0)                                 1 	(obj:0)
yStoTecArtM3(D2,P0)                                 1 	(obj:0)
yStoTecArtCS(D1,P4)                                 1 	(obj:0)
yStoTecArtCS(D3,P1)                                 1 	(obj:0)
yStoCriCin(D4,P4)                                   1 	(obj:0)
yStoCriCin(D4,P5)                                   1 	(obj:0)
yStoTecFot(D0,P4)                                   1 	(obj:0)
yStoTecFot(D0,P5)                                   1 	(obj:0)
yStoGre(D0,P0)                                      1 	(obj:0)
yStoGre(D1,P1)                                      1 	(obj:0)
yStoGre(D2,P0)                                      1 	(obj:0)
yStoMed2(D4,P4)                                     1 	(obj:0)
yStoMed2(D4,P5)                                     1 	(obj:0)
yStoMed2(D5,P1)                                     1 	(obj:0)
yStoModCS(D2,P2)                                    1 	(obj:0)
yStoModCS(D4,P0)                                    1 	(obj:0)
yStoMod2(D2,P2)                                     1 	(obj:0)
yStoMod2(D3,P2)                                     1 	(obj:0)
yStoMod2(D4,P0)                                     1 	(obj:0)
yStoRom(D2,P1)                                      1 	(obj:0)
yStoRom(D3,P3)                                      1 	(obj:0)
yStoRomCS(D1,P5)                                    1 	(obj:0)
yStoRomCS(D2,P3)                                    1 	(obj:0)
yTedUma(D0,P2)                                      1 	(obj:0)
yTedUma(D0,P3)                                      1 	(obj:0)
yTedUma(D1,P2)                                      1 	(obj:0)
yTopRilMonAnt(D0,P4)                                1 	(obj:0)
yTopRilMonAnt(D0,P5)                                1 	(obj:0)
yTopRilMonAnt(D3,P4)                                1 	(obj:0)
lambdacap60Geo1(D4,P4)                              1 	(obj:5)
lambdacap65ItaScr(D4,P4)                            1 	(obj:2)
DayInUseAntCuld1                                    1 	(obj:0)
DayInUseAntCuld3                                    1 	(obj:0)
DayInUseArcClaCSd3                                  1 	(obj:0)
DayInUseArcClaCSd4                                  1 	(obj:0)
DayInUseArcCla1d1                                   1 	(obj:0)
DayInUseArcCla1d2                                   1 	(obj:0)
DayInUseArcCla1d4                                   1 	(obj:0)
DayInUseArcCla2d4                                   1 	(obj:0)
DayInUseArcCriMedd1                                 1 	(obj:0)
DayInUseArcCriMedd3                                 1 	(obj:0)
DayInUseArcVicOriAntd1                              1 	(obj:0)
DayInUseArcVicOriAntd2                              1 	(obj:0)
DayInUseArcStoArtMusd3                              1 	(obj:0)
DayInUseArcMedCSd1                                  1 	(obj:0)
DayInUseArcMedCSd3                                  1 	(obj:0)
DayInUseArchivd1                                    1 	(obj:0)
DayInUseArchivd3                                    1 	(obj:0)
DayInUseArchivCSd2                                  1 	(obj:0)
DayInUseArchivCSd4                                  1 	(obj:0)
DayInUseBioarcCSd0                                  1 	(obj:0)
DayInUseBioarcCSd2                                  1 	(obj:0)
DayInUseCartogd0                                    1 	(obj:0)
DayInUseCartogd2                                    1 	(obj:0)
DayInUseCartogd3                                    1 	(obj:0)
DayInUseChiResCSd2                                  1 	(obj:0)
DayInUseCodicod0                                    1 	(obj:0)
DayInUseCodicod1                                    1 	(obj:0)
DayInUseCodicoCSd0                                  1 	(obj:0)
DayInUseEcoAzid0                                    1 	(obj:0)
DayInUseEcoAzid1                                    1 	(obj:0)
DayInUseEcoAzid3                                    1 	(obj:0)
DayInUseEleInfSciCatBenCulM2d5                      1 	(obj:0)
DayInUseEleInfSciCatBenCulM3d2                      1 	(obj:0)
DayInUseEleInfSciCatBenCulM3d3                      1 	(obj:0)
DayInUseEpiLatd1                                    1 	(obj:0)
DayInUseEpiLatd4                                    1 	(obj:0)
DayInUseEstetid1                                    1 	(obj:0)
DayInUseEstetid2                                    1 	(obj:0)
DayInUseEstetid3                                    1 	(obj:0)
DayInUseEtrAntItad0                                 1 	(obj:0)
DayInUseEtrAntItad3                                 1 	(obj:0)
DayInUseFilCla2d1                                   1 	(obj:0)
DayInUseFilCla2d2                                   1 	(obj:0)
DayInUseFilTeod1                                    1 	(obj:0)
DayInUseFilTeod2                                    1 	(obj:0)
DayInUseFilTeod3                                    1 	(obj:0)
DayInUseFonSocd1                                    1 	(obj:0)
DayInUseFonSocd3                                    1 	(obj:0)
DayInUseFonSocd4                                    1 	(obj:0)
DayInUseGeoTurd0                                    1 	(obj:0)
DayInUseGeoTurd1                                    1 	(obj:0)
DayInUseGeoTurd2                                    1 	(obj:0)
DayInUseGeo1d0                                      1 	(obj:0)
DayInUseGeo1d2                                      1 	(obj:0)
DayInUseGeo1d4                                      1 	(obj:0)
DayInUseGlottod1                                    1 	(obj:0)
DayInUseGlottod5                                    1 	(obj:0)
DayInUseInfDocd1                                    1 	(obj:0)
DayInUseInfDocd2                                    1 	(obj:0)
DayInUseItaScrd3                                    1 	(obj:0)
DayInUseItaScrd4                                    1 	(obj:0)
DayInUseLegBenCul2d3                                1 	(obj:0)
DayInUseLetCriAntd0                                 1 	(obj:0)
DayInUseLetCriAntd4                                 1 	(obj:0)
DayInUseLinLetGre1d0                                1 	(obj:0)
DayInUseLinLetGre1d4                                1 	(obj:0)
DayInUseLinLetLatCSd0                               1 	(obj:0)
DayInUseLinLetLatCSd2                               1 	(obj:0)
DayInUseLinLetLat2d1                                1 	(obj:0)
DayInUseLinLetLat2d2                                1 	(obj:0)
DayInUseLinGreAd0                                   1 	(obj:0)
DayInUseLinGreAd2                                   1 	(obj:0)
DayInUseLinLatAd0                                   1 	(obj:0)
DayInUseLinLatAd1                                   1 	(obj:0)
DayInUseLinLatBd0                                   1 	(obj:0)
DayInUseLinLatBd3                                   1 	(obj:0)
DayInUseLinLatBd4                                   1 	(obj:0)
DayInUseLinGend1                                    1 	(obj:0)
DayInUseLinGend2                                    1 	(obj:0)
DayInUseLinGend4                                    1 	(obj:0)
DayInUseLinItad2                                    1 	(obj:0)
DayInUseLinItad3                                    1 	(obj:0)
DayInUseLogFilMatd1                                 1 	(obj:0)
DayInUseLogFilMatd3                                 1 	(obj:0)
DayInUseMatTecAppArcM3d1                            1 	(obj:0)
DayInUseMatTecAppArcM3d3                            1 	(obj:0)
DayInUseMatCarCosResEdiStod1                        1 	(obj:0)
DayInUseMatCarCosResEdiStod2                        1 	(obj:0)
DayInUseMetRicStoArtd0                              1 	(obj:0)
DayInUseNumismCSd0                                  1 	(obj:0)
DayInUseNumismCSd3                                  1 	(obj:0)
DayInUseOrientCSd2                                  1 	(obj:0)
DayInUseOrientCSd3                                  1 	(obj:0)
DayInUsePaleoad0                                    1 	(obj:0)
DayInUsePaleoad1                                    1 	(obj:0)
DayInUsePaleoad2                                    1 	(obj:0)
DayInUsePalLatd0                                    1 	(obj:0)
DayInUsePalLatd4                                    1 	(obj:0)
DayInUsePapiroCSd1                                  1 	(obj:0)
DayInUseProMedCSd1                                  1 	(obj:0)
DayInUseProMedCSd2                                  1 	(obj:0)
DayInUseProMedCSd4                                  1 	(obj:0)
DayInUsePsiTurd1                                    1 	(obj:0)
DayInUsePsiTurd2                                    1 	(obj:0)
DayInUsePsiTurd4                                    1 	(obj:0)
DayInUseSocArtd0                                    1 	(obj:0)
DayInUseSocArtd1                                    1 	(obj:0)
DayInUseSocArtd3                                    1 	(obj:0)
DayInUseSociol1d1                                   1 	(obj:0)
DayInUseSociol1d4                                   1 	(obj:0)
DayInUseStoConCSd2                                  1 	(obj:0)
DayInUseStoConCSd4                                  1 	(obj:0)
DayInUseStoAntStaItaCSd0                            1 	(obj:0)
DayInUseStoColIstMusd1                              1 	(obj:0)
DayInUseStoColIstMusd2                              1 	(obj:0)
DayInUseStoDisGrad1                                 1 	(obj:0)
DayInUseStoFriCSd2                                  1 	(obj:0)
DayInUseStoFriCSd3                                  1 	(obj:0)
DayInUseStoLibStad1                                 1 	(obj:0)
DayInUseStoLibStad2                                 1 	(obj:0)
DayInUseStoLibStaCSM1d0                             1 	(obj:0)
DayInUseStoLibStaCSM1d2                             1 	(obj:0)
DayInUseStoLibStaCSM2d0                             1 	(obj:0)
DayInUseStoLibStaCSM2d2                             1 	(obj:0)
DayInUseStoResd1                                    1 	(obj:0)
DayInUseStoResd4                                    1 	(obj:0)
DayInUseStoArcd2                                    1 	(obj:0)
DayInUseStoArcd3                                    1 	(obj:0)
DayInUseStoArcd4                                    1 	(obj:0)
DayInUseStoArcCond0                                 1 	(obj:0)
DayInUseStoArcCond3                                 1 	(obj:0)
DayInUseStoArcMedd5                                 1 	(obj:0)
DayInUseStoArtd1                                    1 	(obj:0)
DayInUseStoArtd3                                    1 	(obj:0)
DayInUseStoArtd5                                    1 	(obj:0)
DayInUseStoCriArtd1                                 1 	(obj:0)
DayInUseStoFilCSd1                                  1 	(obj:0)
DayInUseStoFilMedCSd2                               1 	(obj:0)
DayInUseStoLinItaCSd4                               1 	(obj:0)
DayInUseStoMusd1                                    1 	(obj:0)
DayInUseStoProArtCulMatMedd2                        1 	(obj:0)
DayInUseStoProArtCulMatMedd3                        1 	(obj:0)
DayInUseStoArtCon2CSd2                              1 	(obj:0)
DayInUseStoArtCon2CSd3                              1 	(obj:0)
DayInUseStoArtMod2CSd2                              1 	(obj:0)
DayInUseStoArtMod2CSd3                              1 	(obj:0)
DayInUseStoBibd0                                    1 	(obj:0)
DayInUseStoBibd2                                    1 	(obj:0)
DayInUseStoTecArtM12d0                              1 	(obj:0)
DayInUseStoTecArtM12d2                              1 	(obj:0)
DayInUseStoTecArtM12d3                              1 	(obj:0)
DayInUseStoTecArtM3d0                               1 	(obj:0)
DayInUseStoTecArtM3d1                               1 	(obj:0)
DayInUseStoTecArtM3d2                               1 	(obj:0)
DayInUseStoTecArtCSd1                               1 	(obj:0)
DayInUseStoTecArtCSd3                               1 	(obj:0)
DayInUseStoCriCind4                                 1 	(obj:0)
DayInUseStoTecFotd0                                 1 	(obj:0)
DayInUseStoGred0                                    1 	(obj:0)
DayInUseStoGred1                                    1 	(obj:0)
DayInUseStoGred2                                    1 	(obj:0)
DayInUseStoMed2d4                                   1 	(obj:0)
DayInUseStoMed2d5                                   1 	(obj:0)
DayInUseStoModCSd2                                  1 	(obj:0)
DayInUseStoModCSd4                                  1 	(obj:0)
DayInUseStoMod2d2                                   1 	(obj:0)
DayInUseStoMod2d3                                   1 	(obj:0)
DayInUseStoMod2d4                                   1 	(obj:0)
DayInUseStoRomd2                                    1 	(obj:0)
DayInUseStoRomd3                                    1 	(obj:0)
DayInUseStoRomCSd1                                  1 	(obj:0)
DayInUseStoRomCSd2                                  1 	(obj:0)
DayInUseTedUmad0                                    1 	(obj:0)
DayInUseTedUmad1                                    1 	(obj:0)
DayInUseTopRilMonAntd0                              1 	(obj:0)
DayInUseTopRilMonAntd3                              1 	(obj:0)
DaysBelowVioArcCla2                                 1 	(obj:5)
DaysBelowVioArcStoArtMus                            1 	(obj:5)
DaysBelowVioChiResCS                                1 	(obj:5)
DaysBelowVioCodicoCS                                1 	(obj:5)
DaysBelowVioEleInfSciCatBenCulM2                    1 	(obj:5)
DaysBelowVioLegBenCul2                              1 	(obj:5)
DaysBelowVioMetRicStoArt                            1 	(obj:5)
DaysBelowVioPapiroCS                                1 	(obj:5)
DaysBelowVioStoAntStaItaCS                          1 	(obj:5)
DaysBelowVioStoDisGra                               1 	(obj:5)
DaysBelowVioStoArcMed                               1 	(obj:5)
DaysBelowVioStoCriArt                               1 	(obj:5)
DaysBelowVioStoFilCS                                1 	(obj:5)
DaysBelowVioStoFilMedCS                             1 	(obj:5)
DaysBelowVioStoLinItaCS                             1 	(obj:5)
DaysBelowVioStoMus                                  1 	(obj:5)
DaysBelowVioStoCriCin                               1 	(obj:5)
DaysBelowVioStoTecFot                               1 	(obj:5)
CurriculaIsolatedq001(D1,P1)                        1 	(obj:2)
CurriculaIsolatedq001(D4,P4)                        1 	(obj:2)
CurriculaIsolatedq002(D1,P3)                        1 	(obj:2)
CurriculaIsolatedq002(D4,P4)                        1 	(obj:2)
CurriculaIsolatedq004(D4,P4)                        1 	(obj:2)
CurriculaIsolatedq005(D0,P1)                        1 	(obj:2)
CurriculaIsolatedq005(D3,P0)                        1 	(obj:2)
CurriculaIsolatedq005(D3,P2)                        1 	(obj:2)
CurriculaIsolatedq007(D2,P0)                        1 	(obj:2)
CurriculaIsolatedq007(D2,P3)                        1 	(obj:2)
CurriculaIsolatedq007(D3,P4)                        1 	(obj:2)
CurriculaIsolatedq008(D0,P1)                        1 	(obj:2)
CurriculaIsolatedq008(D3,P3)                        1 	(obj:2)
CurriculaIsolatedq010(D2,P3)                        1 	(obj:2)
CurriculaIsolatedq011(D0,P1)                        1 	(obj:2)
CurriculaIsolatedq011(D4,P4)                        1 	(obj:2)
CurriculaIsolatedq012(D3,P4)                        1 	(obj:2)
CurriculaIsolatedq012(D4,P4)                        1 	(obj:2)
CurriculaIsolatedq014(D0,P1)                        1 	(obj:2)
CurriculaIsolatedq014(D4,P4)                        1 	(obj:2)
CurriculaIsolatedq015(D3,P4)                        1 	(obj:2)
CurriculaIsolatedq015(D4,P4)                        1 	(obj:2)
CurriculaIsolatedq018(D3,P1)                        1 	(obj:2)
CurriculaIsolatedq018(D3,P4)                        1 	(obj:2)
CurriculaIsolatedq018(D4,P4)                        1 	(obj:2)
CurriculaIsolatedq019(D1,P3)                        1 	(obj:2)
CurriculaIsolatedq019(D3,P3)                        1 	(obj:2)
CurriculaIsolatedq020(D1,P4)                        1 	(obj:2)
CurriculaIsolatedq020(D3,P1)                        1 	(obj:2)
CurriculaIsolatedq020(D3,P3)                        1 	(obj:2)
CurriculaIsolatedq021(D1,P3)                        1 	(obj:2)
CurriculaIsolatedq021(D3,P3)                        1 	(obj:2)
CurriculaIsolatedq022(D1,P4)                        1 	(obj:2)
CurriculaIsolatedq022(D3,P1)                        1 	(obj:2)
CurriculaIsolatedq022(D3,P3)                        1 	(obj:2)
CurriculaIsolatedq024(D1,P1)                        1 	(obj:2)
CurriculaIsolatedq024(D3,P4)                        1 	(obj:2)
CurriculaIsolatedq025(D4,P0)                        1 	(obj:2)
CurriculaIsolatedq025(D5,P1)                        1 	(obj:2)
CurriculaIsolatedq026(D0,P1)                        1 	(obj:2)
CurriculaIsolatedq026(D2,P2)                        1 	(obj:2)
CurriculaIsolatedq026(D3,P2)                        1 	(obj:2)
CurriculaIsolatedq026(D5,P1)                        1 	(obj:2)
CurriculaIsolatedq027(D0,P1)                        1 	(obj:2)
CurriculaIsolatedq028(D1,P1)                        1 	(obj:2)
CurriculaIsolatedq028(D1,P4)                        1 	(obj:2)
CurriculaIsolatedq028(D2,P3)                        1 	(obj:2)
CurriculaIsolatedq028(D3,P2)                        1 	(obj:2)
CurriculaIsolatedq028(D4,P4)                        1 	(obj:2)
CurriculaIsolatedq029(D1,P1)                        1 	(obj:2)
CurriculaIsolatedq031(D1,P0)                        1 	(obj:2)
CurriculaIsolatedq031(D3,P0)                        1 	(obj:2)
CurriculaIsolatedq035(D1,P0)                        1 	(obj:2)
CurriculaIsolatedq035(D3,P0)                        1 	(obj:2)
CurriculaIsolatedq037(D2,P3)                        1 	(obj:2)
CurriculaIsolatedq038(D2,P4)                        1 	(obj:2)
CurriculaIsolatedq041(D2,P3)                        1 	(obj:2)
CurriculaIsolatedq043(D2,P3)                        1 	(obj:2)
CurriculaIsolatedq047(D0,P3)                        1 	(obj:2)
CurriculaIsolatedq049(D0,P3)                        1 	(obj:2)
CurriculaIsolatedq050(D1,P5)                        1 	(obj:2)
CurriculaIsolatedq050(D3,P0)                        1 	(obj:2)
CurriculaIsolatedq052(D1,P1)                        1 	(obj:2)
CurriculaIsolatedq054(D3,P2)                        1 	(obj:2)
CurriculaIsolatedq056(D3,P2)                        1 	(obj:2)
CurriculaIsolatedq059(D1,P4)                        1 	(obj:2)
CurriculaIsolatedq061(D1,P4)                        1 	(obj:2)
CurriculaIsolatedq062(D1,P1)                        1 	(obj:2)
CurriculaIsolatedq062(D2,P1)                        1 	(obj:2)
CurriculaIsolatedq063(D4,P3)                        1 	(obj:2)
CurriculaIsolatedq064(D1,P2)                        1 	(obj:2)
CurriculaIsolatedq065(D1,P2)                        1 	(obj:2)
CurriculaIsolatedq065(D4,P3)                        1 	(obj:2)
CurriculaIsolatedq069(D2,P1)                        1 	(obj:2)
CurriculaIsolatedq069(D4,P3)                        1 	(obj:2)
CurriculaIsolatedq070(D2,P1)                        1 	(obj:2)
CurriculaIsolatedq071(D2,P1)                        1 	(obj:2)
CurriculaIsolatedq071(D4,P3)                        1 	(obj:2)
CurriculaIsolatedq073(D2,P1)                        1 	(obj:2)
CurriculaIsolatedq075(D0,P1)                        1 	(obj:2)
CurriculaIsolatedq075(D1,P2)                        1 	(obj:2)
CurriculaIsolatedq075(D2,P1)                        1 	(obj:2)
CurriculaIsolatedq076(D0,P1)                        1 	(obj:2)
CurriculaIsolatedq076(D1,P2)                        1 	(obj:2)
CurriculaIsolatedq077(D1,P2)                        1 	(obj:2)
CurriculaIsolatedq078(D2,P1)                        1 	(obj:2)
CurriculaIsolatedq080(D0,P1)                        1 	(obj:2)
CurriculaIsolatedq084(D5,P0)                        1 	(obj:2)
CurriculaIsolatedq085(D5,P1)                        1 	(obj:2)
CurriculaIsolatedq086(D2,P2)                        1 	(obj:2)
CurriculaIsolatedq086(D4,P0)                        1 	(obj:2)
CurriculaIsolatedq091(D0,P0)                        1 	(obj:2)
CurriculaIsolatedq091(D2,P0)                        1 	(obj:2)
CurriculaIsolatedq092(D2,P1)                        1 	(obj:2)
CurriculaIsolatedq093(D5,P1)                        1 	(obj:2)
CurriculaIsolatedq094(D1,P1)                        1 	(obj:2)
CurriculaIsolatedq095(D1,P1)                        1 	(obj:2)
CurriculaIsolatedq095(D2,P0)                        1 	(obj:2)
CurriculaIsolatedq096(D1,P1)                        1 	(obj:2)
CurriculaIsolatedq097(D1,P1)                        1 	(obj:2)
CurriculaIsolatedq099(D2,P0)                        1 	(obj:2)
CurriculaIsolatedq099(D3,P0)                        1 	(obj:2)
CurriculaIsolatedq103(D3,P0)                        1 	(obj:2)
CurriculaIsolatedq105(D2,P1)                        1 	(obj:2)
CurriculaIsolatedq106(D2,P2)                        1 	(obj:2)
CurriculaIsolatedq107(D2,P0)                        1 	(obj:2)
CurriculaIsolatedq108(D2,P2)                        1 	(obj:2)
CurriculaIsolatedq110(D2,P2)                        1 	(obj:2)
CurriculaIsolatedq111(D2,P0)                        1 	(obj:2)
CurriculaIsolatedq111(D3,P0)                        1 	(obj:2)
CurriculaIsolatedq112(D2,P2)                        1 	(obj:2)
CurriculaIsolatedq115(D3,P0)                        1 	(obj:2)
CurriculaIsolatedq117(D2,P1)                        1 	(obj:2)
CurriculaIsolatedq118(D2,P2)                        1 	(obj:2)
CurriculaIsolatedq129(D0,P4)                        1 	(obj:2)
CurriculaIsolatedq129(D2,P1)                        1 	(obj:2)
CurriculaIsolatedq130(D2,P1)                        1 	(obj:2)
CurriculaIsolatedq131(D0,P1)                        1 	(obj:2)
CurriculaIsolatedq141(D2,P3)                        1 	(obj:2)
CurriculaIsolatedq142(D0,P1)                        1 	(obj:2)
CurriculaIsolatedq142(D3,P0)                        1 	(obj:2)
CurriculaIsolatedq143(D2,P0)                        1 	(obj:2)
CurriculaIsolatedq144B(D1,P4)                       1 	(obj:2)
CurriculaIsolatedq147(D0,P5)                        1 	(obj:2)
CurriculaIsolatedq147(D2,P0)                        1 	(obj:2)
CurriculaIsolatedq149(D2,P3)                        1 	(obj:2)
CurriculaIsolatedq152(D2,P3)                        1 	(obj:2)
CurriculaIsolatedq154(D2,P3)                        1 	(obj:2)
DaysBelowVioTedUma                                  1 	(obj:5)
DaysBelowVioStoMed2                                 1 	(obj:5)
DaysBelowVioStoBib                                  1 	(obj:5)
DaysBelowVioStoRes                                  1 	(obj:5)
DaysBelowVioStoLibSta                               1 	(obj:5)
DaysBelowVioSociol1                                 1 	(obj:5)
DaysBelowVioPalLat                                  1 	(obj:5)
DaysBelowVioMatCarCosResEdiSto                      1 	(obj:5)
DaysBelowVioLinIta                                  1 	(obj:5)
DaysBelowVioLinLetLat2                              1 	(obj:5)
DaysBelowVioLinLetGre1                              1 	(obj:5)
DaysBelowVioLetCriAnt                               1 	(obj:5)
DaysBelowVioInfDoc                                  1 	(obj:5)
DaysBelowVioGlotto                                  1 	(obj:5)
DaysBelowVioFilCla2                                 1 	(obj:5)
DaysBelowVioEtrAntIta                               1 	(obj:5)
DaysBelowVioEpiLat                                  1 	(obj:5)
DaysBelowVioEleInfSciCatBenCulM3                    1 	(obj:5)
DaysBelowVioCodico                                  1 	(obj:5)
DaysBelowVioArchivCS                                1 	(obj:5)
DaysBelowVioArchiv                                  1 	(obj:5)
DaysBelowVioArcVicOriAnt                            1 	(obj:5)
DaysBelowVioTopRilMonAnt                            1 	(obj:5)
